0 10072 
1 9894 
2 9886 
3 9824 
4 9770 
5 9630 
6 9460 
7 9412 
8 9400 
9 9072 
10 9070 
11 9002 
12 8880 
13 8796 
14 8728 
15 8568 
16 8396 
17 8284 
18 8256 
19 8242 
20 8230 
21 8108 
22 8006 
23 8000 
24 7898 
25 7752 
26 7738 
27 7726 
28 7698 
29 7660 
30 7472 
31 7436 
32 7282 
33 7270 
34 7152 
35 7136 
36 7092 
37 7068 
38 7066 
39 7052 
40 6984 
41 6954 
42 6724 
43 6712 
44 6628 
45 6608 
46 6608 
47 6584 
48 6398 
49 6298 
50 6274 
51 6226 
52 6224 
53 6196 
54 6184 
55 6144 
56 6072 
57 6060 
58 6046 
59 6022 
60 5890 
61 5710 
62 5704 
63 5486 
64 5462 
65 5438 
66 5390 
67 5354 
68 5180 
69 5166 
70 4868 
71 4850 
72 4712 
73 4704 
74 4666 
75 4594 
76 4582 
77 4544 
78 4128 
79 4056 
80 4020 
81 3946 
82 3872 
83 3870 
84 3778 
85 3706 
86 3394 
87 3352 
88 3350 
89 3258 
90 3258 
91 3136 
92 3136 
93 3136 
94 3136 
95 3136 
96 3136 
97 3136 
98 3136 
99 3136 
100 3136 
101 3136 
102 3136 
103 3136 
104 3136 
105 3136 
106 3136 
107 3136 
108 3136 
109 3136 
110 3136 
111 3136 
112 3136 
113 3136 
114 3136 
115 3136 
116 3136 
117 3136 
118 3136 
119 3136 
120 3136 
121 3136 
122 3136 
123 3136 
124 3136 
125 3136 
126 3136 
127 3136 
128 3136 
129 3136 
130 3136 
131 3136 
132 3136 
133 3136 
134 3136 
135 3136 
136 3136 
137 3136 
138 3136 
139 3136 
140 3136 
141 3136 
142 3136 
143 3136 
144 3136 
145 3136 
146 3136 
147 3136 
148 3136 
149 3136 
150 3136 
151 3136 
152 3136 
153 3136 
154 3136 
155 3136 
156 3136 
157 3136 
158 3136 
159 3136 
160 3136 
161 3136 
162 3136 
163 3136 
164 3136 
165 3136 
166 3136 
167 3136 
168 3136 
169 3136 
170 3136 
171 3136 
172 3136 
173 3136 
174 3136 
175 3136 
176 3136 
177 3136 
178 3136 
179 3136 
180 3136 
181 3136 
182 3136 
183 3136 
184 3136 
185 3136 
186 3136 
187 3136 
188 3136 
189 3136 
190 3136 
191 3136 
192 3136 
193 3136 
194 3136 
195 3136 
196 3136 
197 3136 
198 3136 
199 3136 
200 3136 
201 3136 
202 3136 
203 3136 
204 3136 
205 3136 
206 3136 
207 3136 
208 3136 
209 3136 
210 3136 
211 3136 
212 3136 
213 3136 
214 3136 
215 3136 
216 3136 
217 3136 
218 3136 
219 3136 
220 3136 
221 3136 
222 3136 
223 3136 
224 3136 
225 3136 
226 3136 
227 3136 
228 3136 
229 3136 
230 3136 
231 3136 
232 3136 
233 3136 
234 3136 
235 3136 
236 3136 
237 3136 
238 3136 
239 3136 
240 3136 
241 3136 
242 3136 
243 3136 
244 3136 
245 3136 
246 3136 
247 3136 
248 3136 
249 3136 
250 3136 
251 3136 
252 3136 
253 3136 
254 3136 
255 3136 
256 3136 
257 3136 
258 3136 
259 3136 
260 3136 
261 3136 
262 3136 
263 3136 
264 3136 
265 3136 
266 3136 
267 3136 
268 3136 
269 3136 
270 3136 
271 3136 
272 3136 
273 3136 
274 3136 
275 3136 
276 3136 
277 3136 
278 3136 
279 3136 
280 3136 
281 3136 
282 3136 
283 3136 
284 3136 
285 3136 
286 3136 
287 3136 
288 3136 
289 3136 
290 3136 
291 3136 
292 3136 
293 3136 
294 3136 
295 3136 
296 3136 
297 3136 
298 3136 
299 3136 
300 3136 
301 3136 
302 3136 
303 3136 
304 3136 
305 3136 
306 3136 
307 3136 
308 3136 
309 3136 
310 3136 
311 3136 
312 3136 
313 3136 
314 3136 
315 3136 
316 3136 
317 3136 
318 3136 
319 3136 
320 3136 
321 3136 
322 3136 
323 3136 
324 3136 
325 3136 
326 3136 
327 3136 
328 3136 
329 3136 
330 3136 
331 3136 
332 3136 
333 3136 
334 3136 
335 3136 
336 3136 
337 3136 
338 3136 
339 3136 
340 3136 
341 3136 
342 3136 
343 3136 
344 3136 
345 3136 
346 3136 
347 3136 
348 3136 
349 3136 
350 3136 
351 3136 
352 3136 
353 3136 
354 3136 
355 3136 
356 3136 
357 3136 
358 3136 
359 3136 
360 3136 
361 3136 
362 3136 
363 3136 
364 3136 
365 3136 
366 3136 
367 3136 
368 3136 
369 3136 
370 3136 
371 3136 
372 3136 
373 3136 
374 3136 
375 3136 
376 3136 
377 3136 
378 3136 
379 3136 
380 3136 
381 3136 
382 3136 
383 3136 
384 3136 
385 3136 
386 3136 
387 3136 
388 3136 
389 3136 
390 3136 
391 3136 
392 3136 
393 3136 
394 3136 
395 3136 
396 3136 
397 3136 
398 3136 
399 3136 
400 3136 
401 3136 
402 3136 
403 3136 
404 3136 
405 3136 
406 3136 
407 3136 
408 3136 
409 3136 
410 3136 
411 3136 
412 3136 
413 3136 
414 3136 
415 3136 
416 3136 
417 3136 
418 3136 
419 3136 
420 3136 
421 3136 
422 3136 
423 3136 
424 3136 
425 3136 
426 3136 
427 3136 
428 3136 
429 3136 
430 3136 
431 3136 
432 3136 
433 3136 
434 3136 
435 3136 
436 3136 
437 3136 
438 3136 
439 3136 
440 3136 
441 3136 
442 3136 
443 3136 
444 3136 
445 3136 
446 3136 
447 3136 
448 3136 
449 3136 
450 3136 
451 3136 
452 3136 
453 3136 
454 3136 
455 3136 
456 3136 
457 3136 
458 3136 
459 3136 
460 3136 
461 3136 
462 3136 
463 3136 
464 3136 
465 3136 
466 3136 
467 3136 
468 3136 
469 3136 
470 3136 
471 3136 
472 3136 
473 3136 
474 3136 
475 3136 
476 3136 
477 3136 
478 3136 
479 3136 
480 3136 
481 3136 
482 3136 
483 3136 
484 3136 
485 3136 
486 3136 
487 3136 
488 3136 
489 3136 
490 3136 
491 3136 
492 3136 
493 3136 
494 3136 
495 3136 
496 3136 
497 3136 
498 3136 
499 3136 
500 3136 
501 3136 
502 3136 
503 3136 
504 3136 
505 3136 
506 3136 
507 3136 
508 3136 
509 3136 
510 3136 
511 3136 
512 3136 
513 3136 
514 3136 
515 3136 
516 3136 
517 3136 
518 3136 
519 3136 
520 3136 
521 3136 
522 3136 
523 3136 
524 3136 
525 3136 
526 3136 
527 3136 
528 3136 
529 3136 
530 3136 
531 3136 
532 3136 
533 3136 
534 3136 
535 3136 
536 3136 
537 3136 
538 3136 
539 3136 
540 3136 
541 3136 
542 3136 
543 3136 
544 3136 
545 3136 
546 3136 
547 3136 
548 3136 
549 3136 
550 3136 
551 3136 
552 3136 
553 3136 
554 3136 
555 3136 
556 3136 
557 3136 
558 3136 
559 3136 
560 3136 
561 3136 
562 3136 
563 3136 
564 3136 
565 3136 
566 3136 
567 3136 
568 3136 
569 3136 
570 3136 
571 3136 
572 3136 
573 3136 
574 3136 
575 3136 
576 3136 
577 3136 
578 3136 
579 3136 
580 3136 
581 3136 
582 3136 
583 3136 
584 3136 
585 3136 
586 3136 
587 3136 
588 3136 
589 3136 
590 3136 
591 3136 
592 3136 
593 3136 
594 3136 
595 3136 
596 3136 
597 3136 
598 3136 
599 3136 
600 3136 
601 3136 
602 3136 
603 3136 
604 3136 
605 3136 
606 3136 
607 3136 
608 3136 
609 3136 
610 3136 
611 3136 
612 3136 
613 3136 
614 3136 
615 3136 
616 3136 
617 3136 
618 3136 
619 3136 
620 3136 
621 3136 
622 3136 
623 3136 
624 3136 
625 3136 
626 3136 
627 3136 
628 3136 
629 3136 
630 3136 
631 3136 
632 3136 
633 3136 
634 3136 
635 3136 
636 3136 
637 3136 
638 3136 
639 3136 
640 3136 
641 3136 
642 3136 
643 3136 
644 3136 
645 3136 
646 3136 
647 3136 
648 3136 
649 3136 
650 3136 
651 3136 
652 3136 
653 3136 
654 3136 
655 3136 
656 3136 
657 3136 
658 3136 
659 3136 
660 3136 
661 3136 
662 3136 
663 3136 
664 3136 
665 3136 
666 3136 
667 3136 
668 3136 
669 3136 
670 3136 
671 3136 
672 3136 
673 3136 
674 3136 
675 3136 
676 3136 
677 3136 
678 3136 
679 3136 
680 3136 
681 3136 
682 3136 
683 3136 
684 3136 
685 3136 
686 3136 
687 3136 
688 3136 
689 3136 
690 3136 
691 3136 
692 3136 
693 3136 
694 3136 
695 3136 
696 3136 
697 3136 
698 3136 
699 3136 
700 3136 
701 3136 
702 3136 
703 3136 
704 3136 
705 3136 
706 3136 
707 3136 
708 3136 
709 3136 
710 3136 
711 3136 
712 3136 
713 3136 
714 3136 
715 3136 
716 3136 
717 3136 
718 3136 
719 3136 
720 3136 
721 3136 
722 3136 
723 3136 
724 3136 
725 3136 
726 3136 
727 3136 
728 3136 
729 3136 
730 3136 
731 3136 
732 3136 
733 3136 
734 3136 
735 3136 
736 3136 
737 3136 
738 3136 
739 3136 
740 3136 
741 3136 
742 3136 
743 3136 
744 3136 
745 3136 
746 3136 
747 3136 
748 3136 
749 3136 
750 3136 
751 3136 
752 3136 
753 3136 
754 3136 
755 3136 
756 3136 
757 3136 
758 3136 
759 3136 
760 3136 
761 3136 
762 3136 
763 3136 
764 3136 
765 3136 
766 3136 
767 3136 
768 3136 
769 3136 
770 3136 
771 3136 
772 3136 
773 3136 
774 3136 
775 3136 
776 3136 
777 3136 
778 3136 
779 3136 
780 3136 
781 3136 
782 3136 
783 3136 
784 3136 
785 3136 
786 3136 
787 3136 
788 3136 
789 3136 
790 3136 
791 3136 
792 3136 
793 3136 
794 3136 
795 3136 
796 3136 
797 3136 
798 3136 
799 3136 
800 3136 
801 3136 
802 3136 
803 3136 
804 3136 
805 3136 
806 3136 
807 3136 
808 3136 
809 3136 
810 3136 
811 3136 
812 3136 
813 3136 
814 3136 
815 3136 
816 3136 
817 3136 
818 3136 
819 3136 
820 3136 
821 3136 
822 3136 
823 3136 
824 3136 
825 3136 
826 3136 
827 3136 
828 3136 
829 3136 
830 3136 
831 3136 
832 3136 
833 3136 
834 3136 
835 3136 
836 3136 
837 3136 
838 3136 
839 3136 
840 3136 
841 3136 
842 3136 
843 3136 
844 3136 
845 3136 
846 3136 
847 3136 
848 3136 
849 3136 
850 3136 
851 3136 
852 3136 
853 3136 
854 3136 
855 3136 
856 3136 
857 3136 
858 3136 
859 3136 
860 3136 
861 3136 
862 3136 
863 3136 
864 3136 
865 3136 
866 3136 
867 3136 
868 3136 
869 3136 
870 3136 
871 3136 
872 3136 
873 3136 
874 3136 
875 3136 
876 3136 
877 3136 
878 3136 
879 3136 
880 3136 
881 3136 
882 3136 
883 3136 
884 3136 
885 3136 
886 3136 
887 3136 
888 3136 
889 3136 
890 3136 
891 3136 
892 3136 
893 3136 
894 3136 
895 3136 
896 3136 
897 3136 
898 3136 
899 3136 
900 3136 
901 3136 
902 3136 
903 3136 
904 3136 
905 3136 
906 3136 
907 3136 
908 3136 
909 3136 
910 3136 
911 3136 
912 3136 
913 3136 
914 3136 
915 3136 
916 3136 
917 3136 
918 3136 
919 3136 
920 3136 
921 3136 
922 3136 
923 3136 
924 3136 
925 3136 
926 3136 
927 3136 
928 3136 
929 3136 
930 3136 
931 3136 
932 3136 
933 3136 
934 3136 
935 3136 
936 3136 
937 3136 
938 3136 
939 3136 
940 3136 
941 3136 
942 3136 
943 3136 
944 3136 
945 3136 
946 3136 
947 3136 
948 3136 
949 3136 
950 3136 
951 3136 
952 3136 
953 3136 
954 3136 
955 3136 
956 3136 
957 3136 
958 3136 
959 3136 
960 3136 
961 3136 
962 3136 
963 3136 
964 3136 
965 3136 
966 3136 
967 3136 
968 3136 
969 3136 
970 3136 
971 3136 
972 3136 
973 3136 
974 3136 
975 3136 
976 3136 
977 3136 
978 3136 
979 3136 
980 3136 
981 3136 
982 3136 
983 3136 
984 3136 
985 3136 
986 3136 
987 3136 
988 3136 
989 3136 
990 3136 
991 3136 
992 3136 
993 3136 
994 3136 
995 3136 
996 3136 
997 3136 
998 3136 
999 3136 
1000 3136 
1001 3136 
1002 3136 
1003 3136 
1004 3136 
1005 3136 
1006 3136 
1007 3136 
1008 3136 
1009 3136 
1010 3136 
1011 3136 
1012 3136 
1013 3136 
1014 3136 
1015 3136 
1016 3136 
1017 3136 
1018 3136 
1019 3136 
1020 3136 
1021 3136 
1022 3136 
1023 3136 
1024 3136 
1025 3136 
1026 3136 
1027 3136 
1028 3136 
1029 3136 
1030 3136 
1031 3136 
1032 3136 
1033 3136 
1034 3136 
1035 3136 
1036 3136 
1037 3136 
1038 3136 
1039 3136 
1040 3136 
1041 3136 
1042 3136 
1043 3136 
1044 3136 
1045 3136 
1046 3136 
1047 3136 
1048 3136 
1049 3136 
1050 3136 
1051 3136 
1052 3136 
1053 3136 
1054 3136 
1055 3136 
1056 3136 
1057 3136 
1058 3136 
1059 3136 
1060 3136 
1061 3136 
1062 3136 
1063 3136 
1064 3136 
1065 3136 
1066 3136 
1067 3136 
1068 3136 
1069 3136 
1070 3136 
1071 3136 
1072 3136 
1073 3136 
1074 3136 
1075 3136 
1076 3136 
1077 3136 
1078 3136 
1079 3136 
1080 3136 
1081 3136 
1082 3136 
1083 3136 
1084 3136 
1085 3136 
1086 3136 
1087 3136 
1088 3136 
1089 3136 
1090 3136 
1091 3136 
1092 3136 
1093 3136 
1094 3136 
1095 3136 
1096 3136 
1097 3136 
1098 3136 
1099 3136 
1100 3136 
1101 3136 
1102 3136 
1103 3136 
1104 3136 
1105 3136 
1106 3136 
1107 3136 
1108 3136 
1109 3136 
1110 3136 
1111 3136 
1112 3136 
1113 3136 
1114 3136 
1115 3136 
1116 3136 
1117 3136 
1118 3136 
1119 3136 
1120 3136 
1121 3136 
1122 3136 
1123 3136 
1124 3136 
1125 3136 
1126 3136 
1127 3136 
1128 3136 
1129 3136 
1130 3136 
1131 3136 
1132 3136 
1133 3136 
1134 3136 
1135 3136 
1136 3136 
1137 3136 
1138 3136 
1139 3136 
1140 3136 
1141 3136 
1142 3136 
1143 3136 
1144 3136 
1145 3136 
1146 3136 
1147 3136 
1148 3136 
1149 3136 
1150 3136 
1151 3136 
1152 3136 
1153 3136 
1154 3136 
1155 3136 
1156 3136 
1157 3136 
1158 3136 
1159 3136 
1160 3136 
1161 3136 
1162 3136 
1163 3136 
1164 3136 
1165 3136 
1166 3136 
1167 3136 
1168 3136 
1169 3136 
1170 3136 
1171 3136 
1172 3136 
1173 3136 
1174 3136 
1175 3136 
1176 3136 
1177 3136 
1178 3136 
1179 3136 
1180 3136 
1181 3136 
1182 3136 
1183 3136 
1184 3136 
1185 3136 
1186 3136 
1187 3136 
1188 3136 
1189 3136 
1190 3136 
1191 3136 
1192 3136 
1193 3136 
1194 3136 
1195 3136 
1196 3136 
1197 3136 
1198 3136 
1199 3136 
1200 3136 
1201 3136 
1202 3136 
1203 3136 
1204 3136 
1205 3136 
1206 3136 
1207 3136 
1208 3136 
1209 3136 
1210 3136 
1211 3136 
1212 3136 
1213 3136 
1214 3136 
1215 3136 
1216 3136 
1217 3136 
1218 3136 
1219 3136 
1220 3136 
1221 3136 
1222 3136 
1223 3136 
1224 3136 
1225 3136 
1226 3136 
1227 3136 
1228 3136 
1229 3136 
1230 3136 
1231 3136 
1232 3136 
1233 3136 
1234 3136 
1235 3136 
1236 3136 
1237 3136 
1238 3136 
1239 3136 
1240 3136 
1241 3136 
1242 3136 
1243 3136 
1244 3136 
1245 3136 
1246 3136 
1247 3136 
1248 3136 
1249 3136 
1250 3136 
1251 3136 
1252 3136 
1253 3136 
1254 3136 
1255 3136 
1256 3136 
1257 3136 
1258 3136 
1259 3136 
1260 3136 
1261 3136 
1262 3136 
1263 3136 
1264 3136 
1265 3136 
1266 3136 
1267 3136 
1268 3136 
1269 3136 
1270 3136 
1271 3136 
1272 3136 
1273 3136 
1274 3136 
1275 3136 
1276 3136 
1277 3136 
1278 3136 
1279 3136 
1280 3136 
1281 3136 
1282 3136 
1283 3136 
1284 3136 
1285 3136 
1286 3136 
1287 3136 
1288 3136 
1289 3136 
1290 3136 
1291 3136 
1292 3136 
1293 3136 
1294 3136 
1295 3136 
1296 3136 
1297 3136 
1298 3136 
1299 3136 
1300 3136 
1301 3136 
1302 3136 
1303 3136 
1304 3136 
1305 3136 
1306 3136 
1307 3136 
1308 3136 
1309 3136 
1310 3136 
1311 3136 
1312 3136 
1313 3136 
1314 3136 
1315 3136 
1316 3136 
1317 3136 
1318 3136 
1319 3136 
1320 3136 
1321 3136 
1322 3136 
1323 3136 
1324 3136 
1325 3136 
1326 3136 
1327 3136 
1328 3136 
1329 3136 
1330 3136 
1331 3136 
1332 3136 
1333 3136 
1334 3136 
1335 3136 
1336 3136 
1337 3136 
1338 3136 
1339 3136 
1340 3136 
1341 3136 
1342 3136 
1343 3136 
1344 3136 
1345 3136 
1346 3136 
1347 3136 
1348 3136 
1349 3136 
1350 3136 
1351 3136 
1352 3136 
1353 3136 
1354 3136 
1355 3136 
1356 3136 
1357 3136 
1358 3136 
1359 3136 
1360 3136 
1361 3136 
1362 3136 
1363 3136 
1364 3136 
1365 3136 
1366 3136 
1367 3136 
1368 3136 
1369 3136 
1370 3136 
1371 3136 
1372 3136 
1373 3136 
1374 3136 
1375 3136 
1376 3136 
1377 3136 
1378 3136 
1379 3136 
1380 3136 
1381 3136 
1382 3136 
1383 3136 
1384 3136 
1385 3136 
1386 3136 
1387 3136 
1388 3136 
1389 3136 
1390 3136 
1391 3136 
1392 3136 
1393 3136 
1394 3136 
1395 3136 
1396 3136 
1397 3136 
1398 3136 
1399 3136 
1400 3136 
1401 3136 
1402 3136 
1403 3136 
1404 3136 
1405 3136 
1406 3136 
1407 3136 
1408 3136 
1409 3136 
1410 3136 
1411 3136 
1412 3136 
1413 3136 
1414 3136 
1415 3136 
1416 3136 
1417 3136 
1418 3136 
1419 3136 
1420 3136 
1421 3136 
1422 3136 
1423 3136 
1424 3136 
1425 3136 
1426 3136 
1427 3136 
1428 3136 
1429 3136 
1430 3136 
1431 3136 
1432 3136 
1433 3136 
1434 3136 
1435 3136 
1436 3136 
1437 3136 
1438 3136 
1439 3136 
1440 3136 
1441 3136 
1442 3136 
1443 3136 
1444 3136 
1445 3136 
1446 3136 
1447 3136 
1448 3136 
1449 3136 
1450 3136 
1451 3136 
1452 3136 
1453 3136 
1454 3136 
1455 3136 
1456 3136 
1457 3136 
1458 3136 
1459 3136 
1460 3136 
1461 3136 
1462 3136 
1463 3136 
1464 3136 
1465 3136 
1466 3136 
1467 3136 
1468 3136 
1469 3136 
1470 3136 
1471 3136 
1472 3136 
1473 3136 
1474 3136 
1475 3136 
1476 3136 
1477 3136 
1478 3136 
1479 3136 
1480 3136 
1481 3136 
1482 3136 
1483 3136 
1484 3136 
1485 3136 
1486 3136 
1487 3136 
1488 3136 
1489 3136 
1490 3136 
1491 3136 
1492 3136 
1493 3136 
1494 3136 
1495 3136 
1496 3136 
1497 3136 
1498 3136 
1499 3136 
1500 3136 
1501 3136 
1502 3136 
1503 3136 
1504 3136 
1505 3136 
1506 3136 
1507 3136 
1508 3136 
1509 3136 
1510 3136 
1511 3136 
1512 3136 
1513 3136 
1514 3136 
1515 3136 
1516 3136 
1517 3136 
1518 3136 
1519 3136 
1520 3136 
1521 3136 
1522 3136 
1523 3136 
1524 3136 
1525 3136 
1526 3136 
1527 3136 
1528 3136 
1529 3136 
1530 3136 
1531 3136 
1532 3136 
1533 3136 
1534 3136 
1535 3136 
1536 3136 
1537 3136 
1538 3136 
1539 3136 
1540 3136 
1541 3136 
1542 3136 
1543 3136 
1544 3136 
1545 3136 
1546 3136 
1547 3136 
1548 3136 
1549 3136 
1550 3136 
1551 3136 
1552 3136 
1553 3136 
1554 3136 
1555 3136 
1556 3136 
1557 3136 
1558 3136 
1559 3136 
1560 3136 
1561 3136 
1562 3136 
1563 3136 
1564 3136 
1565 3136 
1566 3136 
1567 3136 
1568 3136 
1569 3136 
1570 3136 
1571 3136 
1572 3136 
1573 3136 
1574 3136 
1575 3136 
1576 3136 
1577 3136 
1578 3136 
1579 3136 
1580 3136 
1581 3136 
1582 3136 
1583 3136 
1584 3136 
1585 3136 
1586 3136 
1587 3136 
1588 3136 
1589 3136 
1590 3136 
1591 3136 
1592 3136 
1593 3136 
1594 3136 
1595 3136 
1596 3136 
1597 3136 
1598 3136 
1599 3136 
1600 3136 
1601 3136 
1602 3136 
1603 3136 
1604 3136 
1605 3136 
1606 3136 
1607 3136 
1608 3136 
1609 3136 
1610 3136 
1611 3136 
1612 3136 
1613 3136 
1614 3136 
1615 3136 
1616 3136 
1617 3136 
1618 3136 
1619 3136 
1620 3136 
1621 3136 
1622 3136 
1623 3136 
1624 3136 
1625 3136 
1626 3136 
1627 3136 
1628 3136 
1629 3136 
1630 3136 
1631 3136 
1632 3136 
1633 3136 
1634 3136 
1635 3136 
1636 3136 
1637 3136 
1638 3136 
1639 3136 
1640 3136 
1641 3136 
1642 3136 
1643 3136 
1644 3136 
1645 3136 
1646 3136 
1647 3136 
1648 3136 
1649 3136 
1650 3136 
1651 3136 
1652 3136 
1653 3136 
1654 3136 
1655 3136 
1656 3136 
1657 3136 
1658 3136 
1659 3136 
1660 3136 
1661 3136 
1662 3136 
1663 3136 
1664 3136 
1665 3136 
1666 3136 
1667 3136 
1668 3136 
1669 3136 
1670 3136 
1671 3136 
1672 3136 
1673 3136 
1674 3136 
1675 3136 
1676 3136 
1677 3136 
1678 3136 
1679 3136 
1680 3136 
1681 3136 
1682 3136 
1683 3136 
1684 3136 
1685 3136 
1686 3136 
1687 3136 
1688 3136 
1689 3136 
1690 3136 
1691 3136 
1692 3136 
1693 3136 
1694 3136 
1695 3136 
1696 3136 
1697 3136 
1698 3136 
1699 3136 
1700 3136 
1701 3136 
1702 3136 
1703 3136 
1704 3136 
1705 3136 
1706 3136 
1707 3136 
1708 3136 
1709 3136 
1710 3136 
1711 3136 
1712 3136 
1713 3136 
1714 3136 
1715 3136 
1716 3136 
1717 3136 
1718 3136 
1719 3136 
1720 3136 
1721 3136 
1722 3136 
1723 3136 
1724 3136 
1725 3136 
1726 3136 
1727 3136 
1728 3136 
1729 3136 
1730 3136 
1731 3136 
1732 3136 
1733 3136 
1734 3136 
1735 3136 
1736 3136 
1737 3136 
1738 3136 
1739 3136 
1740 3136 
1741 3136 
1742 3136 
1743 3136 
1744 3136 
1745 3136 
1746 3136 
1747 3136 
1748 3136 
1749 3136 
1750 3136 
1751 3136 
1752 3136 
1753 3136 
1754 3136 
1755 3136 
1756 3136 
1757 3136 
1758 3136 
1759 3136 
1760 3136 
1761 3136 
1762 3136 
1763 3136 
1764 3136 
1765 3136 
1766 3136 
1767 3136 
1768 3136 
1769 3136 
1770 3136 
1771 3136 
1772 3136 
1773 3136 
1774 3136 
1775 3136 
1776 3136 
1777 3136 
1778 3136 
1779 3136 
1780 3136 
1781 3136 
1782 3136 
1783 3136 
1784 3136 
1785 3136 
1786 3136 
1787 3136 
1788 3136 
1789 3136 
1790 3136 
1791 3136 
1792 3136 
1793 3136 
1794 3136 
1795 3136 
1796 3136 
1797 3136 
1798 3136 
1799 3136 
1800 3136 
1801 3136 
1802 3136 
1803 3136 
1804 3136 
1805 3136 
1806 3136 
1807 3136 
1808 3136 
1809 3136 
1810 3136 
1811 3136 
1812 3136 
1813 3136 
1814 3136 
1815 3136 
1816 3136 
1817 3136 
1818 3136 
1819 3136 
1820 3136 
1821 3136 
1822 3136 
1823 3136 
1824 3136 
1825 3136 
1826 3136 
1827 3136 
1828 3136 
1829 3136 
1830 3136 
1831 3136 
1832 3136 
1833 3136 
1834 3136 
1835 3136 
1836 3136 
1837 3136 
1838 3136 
1839 3136 
1840 3136 
1841 3136 
1842 3136 
1843 3136 
1844 3136 
1845 3136 
1846 3136 
1847 3136 
1848 3136 
1849 3136 
1850 3136 
1851 3136 
1852 3136 
1853 3136 
1854 3136 
1855 3136 
1856 3136 
1857 3136 
1858 3136 
1859 3136 
1860 3136 
1861 3136 
1862 3136 
1863 3136 
1864 3136 
1865 3136 
1866 3136 
1867 3136 
1868 3136 
1869 3136 
1870 3136 
1871 3136 
1872 3136 
1873 3136 
1874 3136 
1875 3136 
1876 3136 
1877 3136 
1878 3136 
1879 3136 
1880 3136 
1881 3136 
1882 3136 
1883 3136 
1884 3136 
1885 3136 
1886 3136 
1887 3136 
1888 3136 
1889 3136 
1890 3136 
1891 3136 
1892 3136 
1893 3136 
1894 3136 
1895 3136 
1896 3136 
1897 3136 
1898 3136 
1899 3136 
1900 3136 
1901 3136 
1902 3136 
1903 3136 
1904 3136 
1905 3136 
1906 3136 
1907 3136 
1908 3136 
1909 3136 
1910 3136 
1911 3136 
1912 3136 
1913 3136 
1914 3136 
1915 3136 
1916 3136 
1917 3136 
1918 3136 
1919 3136 
1920 3136 
1921 3136 
1922 3136 
1923 3136 
1924 3136 
1925 3136 
1926 3136 
1927 3136 
1928 3136 
1929 3136 
1930 3136 
1931 3136 
1932 3136 
1933 3136 
1934 3136 
1935 3136 
1936 3136 
1937 3136 
1938 3136 
1939 3136 
1940 3136 
1941 3136 
1942 3136 
1943 3136 
1944 3136 
1945 3136 
1946 3136 
1947 3136 
1948 3136 
1949 3136 
1950 3136 
1951 3136 
1952 3136 
1953 3136 
1954 3136 
1955 3136 
1956 3136 
1957 3136 
1958 3136 
1959 3136 
1960 3136 
1961 3136 
1962 3136 
1963 3136 
1964 3136 
1965 3136 
1966 3136 
1967 3136 
1968 3136 
1969 3136 
1970 3136 
1971 3136 
1972 3136 
1973 3136 
1974 3136 
1975 3136 
1976 3136 
1977 3136 
1978 3136 
1979 3136 
1980 3136 
1981 3136 
1982 3136 
1983 3136 
1984 3136 
1985 3136 
1986 3136 
1987 3136 
1988 3136 
1989 3136 
1990 3136 
1991 3136 
1992 3136 
1993 3136 
1994 3136 
1995 3136 
1996 3136 
1997 3136 
1998 3136 
1999 3136 
2000 3136 
2001 3136 
2002 3136 
2003 3136 
2004 3136 
2005 3136 
2006 3136 
2007 3136 
2008 3136 
2009 3136 
2010 3136 
2011 3136 
2012 3136 
2013 3136 
2014 3136 
2015 3136 
2016 3136 
2017 3136 
2018 3136 
2019 3136 
2020 3136 
2021 3136 
2022 3136 
2023 3136 
2024 3136 
2025 3136 
2026 3136 
2027 3136 
2028 3136 
2029 3136 
2030 3136 
2031 3136 
2032 3136 
2033 3136 
2034 3136 
2035 3136 
2036 3136 
2037 3136 
2038 3136 
2039 3136 
2040 3136 
2041 3136 
2042 3136 
2043 3136 
2044 3136 
2045 3136 
2046 3136 
2047 3136 
2048 3136 
2049 3136 
2050 3136 
2051 3136 
2052 3136 
2053 3136 
2054 3136 
2055 3136 
2056 3136 
2057 3136 
2058 3136 
2059 3136 
2060 3136 
2061 3136 
2062 3136 
2063 3136 
2064 3136 
2065 3136 
2066 3136 
2067 3136 
2068 3136 
2069 3136 
2070 3136 
2071 3136 
2072 3136 
2073 3136 
2074 3136 
2075 3136 
2076 3136 
2077 3136 
2078 3136 
2079 3136 
2080 3136 
2081 3136 
2082 3136 
2083 3136 
2084 3136 
2085 3136 
2086 3136 
2087 3136 
2088 3136 
2089 3136 
2090 3136 
2091 3136 

